(set-info :smt-lib-version 2.6)
(set-logic QF_SLIA)
(set-info :source |
Generated by: Joel Day, Thorsten Ehlers, Mitja Kulczynski, Federico Mora, Florin Manea, Dirk Nowotka, Danny Poulsen, Zhengyang Lu
Application: Test WOORPJE
Target solver: WOORPJE
Publications: Day, J. D., Ehlers, T., Kulczynski, M., Manea, F., Nowotka, D., & Poulsen, D. B. (2019). On solving word equations using SAT. In RP 2019
Description: Enriches a system of 30 word equations by suitable linear constraints
|)
(set-info :license "https://creativecommons.org/licenses/by/4.0/")
(set-info :category "random")
(set-info :status unknown)

(declare-fun I () String)
(declare-fun E () String)
(declare-fun A () String)
(assert (= (str.++  "aebcdaecfbcdcb" A I A "daefcc" A "faaedfdd")  (str.++  "a" E) ))
(assert (= (str.++  "cccbede" A "ed" A "eacbfc" A "dadeeda" A "cfaeaaccfca" A "d" A)  (str.++  "cccbedebedbeac" A "fcbdadeeda" A "cfaeaaccfcabdb") ))
(assert (= (str.++  "bfffffec" A "adfdea" A "ebbcebe" A "caccceaecafeef" A "c")  (str.++  "bfffffecbadfdeabe" A A "ce" A "e" A "caccceaecafeefbc") ))
(check-sat)

(exit)
